p cnf 160 389
5  -1  2  0
13  9  10  0
-17  -13  -14  0
-21  -17  18  0
-25  21  -22  0
29  25  26  0
33  -29  30  0
-37  -33  -34  0
-41  -37  -38  0
-45  41  -42  0
49  45  -46  0
53  -49  50  0
-57  53  -54  0
61  57  -58  0
-65  -61  -62  0
69  -65  66  0
-73  -69  -70  0
-77  73  74  0
-81  -77  78  0
-85  -81  -82  0
89  85  86  0
-93  89  90  0
-97  93  94  0
-101  97  -98  0
105  -101  102  0
113  109  -110  0
117  113  -114  0
-121  117  -118  0
-125  -121  -122  0
129  -125  -126  0
137  133  134  0
-145  141  142  0
-149  145  146  0
6  -5  2  0
-6  5  -1  0
-6  -1  -2  0
-6  -2  3  0
-10  -9  6  0
10  9  5  0
10  6  -7  0
14  13  9  0
14  -9  -10  0
18  -17  -14  0
-18  -17  -13  0
-18  13  14  0
-18  14  15  0
22  -21  18  0
-22  21  17  0
-22  17  -18  0
-22  18  19  0
26  -25  -22  0
26  25  21  0
-26  -21  22  0
26  -22  23  0
-30  29  -26  0
-30  29  25  0
-30  -26  27  0
-34  29  -30  0
-34  30  31  0
-38  -37  -34  0
-38  -37  33  0
38  34  -35  0
42  -41  -38  0
-42  -41  37  0
-42  37  38  0
-42  -38  -39  0
-46  45  42  0
46  -45  41  0
-46  -41  42  0
-46  -42  43  0
50  49  46  0
50  45  -46  0
50  -46  47  0
-54  -53  -50  0
-54  -53  -49  0
54  50  -51  0
-58  -57  -54  0
-58  57  -53  0
-58  53  -54  0
58  -54  55  0
-62  -61  -58  0
62  61  57  0
-62  57  58  0
62  58  -59  0
-66  -65  62  0
66  -65  -61  0
66  61  -62  0
66  -62  63  0
-70  -69  65  0
70  65  66  0
-70  -66  67  0
-74  -73  70  0
-74  -73  -69  0
-74  69  -70  0
74  70  71  0
-78  -77  74  0
78  -77  -73  0
-78  -73  -74  0
-78  74  -75  0
-82  -81  78  0
-82  81  77  0
82  -77  -78  0
86  85  -82  0
86  85  -81  0
-86  -81  82  0
-90  85  -86  0
90  86  87  0
94  93  -89  0
94  89  -90  0
98  -97  -94  0
98  -94  95  0
-102  101  98  0
-102  101  -97  0
-102  -97  -98  0
102  98  -99  0
106  -105  101  0
106  101  -102  0
-106  102  103  0
110  -109  106  0
-110  -109  -105  0
-110  105  -106  0
110  -106  -107  0
114  -113  110  0
-114  113  -109  0
114  109  -110  0
-114  -110  111  0
118  117  -114  0
118  117  113  0
118  -113  -114  0
118  114  -115  0
-122  121  -118  0
-122  121  -117  0
-122  -117  118  0
-122  -118  119  0
126  -125  122  0
126  -125  -121  0
126  -121  -122  0
-126  -122  -123  0
130  129  126  0
130  129  125  0
130  -125  -126  0
-134  -133  130  0
134  -133  129  0
-134  130  131  0
-138  137  -134  0
138  -137  133  0
-138  -133  134  0
142  141  -138  0
-142  -141  137  0
-142  -137  -138  0
-142  -138  139  0
146  145  -142  0
146  -145  141  0
146  142  -143  0
-150  149  -146  0
-150  149  -145  0
-150  146  147  0
154  153  -150  0
154  -149  150  0
-154  150  -151  0
158  157  -154  0
158  157  -153  0
-158  -154  -155  0
-7  -6  3  0
7  6  -2  0
-7  2  3  0
-11  10  -7  0
11  -10  6  0
-11  6  7  0
15  -14  -11  0
-15  14  -10  0
-15  10  11  0
15  11  12  0
19  18  -15  0
-19  -18  14  0
-19  15  -16  0
23  22  -19  0
-23  22  18  0
23  18  19  0
23  -19  -20  0
-27  -26  23  0
27  26  22  0
-27  22  23  0
-31  -30  -27  0
-31  -30  26  0
-31  -26  -27  0
-31  27  28  0
35  34  -31  0
-35  -34  -30  0
-35  -30  -31  0
-35  31  32  0
39  -38  -35  0
39  38  34  0
-39  -35  -36  0
-43  -42  -39  0
-43  -42  -38  0
-43  38  -39  0
43  39  40  0
-47  -46  43  0
47  46  -42  0
47  42  43  0
47  -43  44  0
51  -50  -47  0
51  50  46  0
-51  46  47  0
51  -47  48  0
55  -54  -51  0
-55  -50  -51  0
59  58  54  0
-59  54  -55  0
-59  -55  -56  0
63  62  59  0
-63  -62  58  0
-63  -58  59  0
63  -59  60  0
67  66  -63  0
-67  66  -62  0
-67  62  -63  0
67  63  64  0
71  70  67  0
-71  -70  66  0
-71  67  -68  0
75  74  71  0
-75  74  -70  0
75  -70  71  0
75  71  -72  0
79  -78  74  0
-79  -74  -75  0
79  -75  -76  0
83  -82  79  0
83  -82  78  0
-83  78  -79  0
87  -86  82  0
87  83  84  0
91  -90  -86  0
-91  -86  87  0
91  -87  88  0
-95  94  -91  0
95  -91  -92  0
99  -98  -95  0
-99  94  95  0
99  95  -96  0
-103  102  -98  0
103  98  99  0
-103  -99  100  0
-107  106  103  0
107  -106  102  0
-107  -102  103  0
107  -103  -104  0
-111  -110  106  0
111  -106  107  0
-111  107  108  0
115  114  111  0
115  114  -110  0
-115  110  -111  0
119  118  115  0
119  118  -114  0
119  -114  115  0
-119  -115  -116  0
-123  -122  119  0
-123  -122  118  0
123  -118  119  0
-123  119  120  0
-127  -126  123  0
127  -126  122  0
-127  122  123  0
127  123  -124  0
131  -130  -127  0
131  -130  -126  0
131  -126  127  0
131  127  -128  0
135  134  -131  0
-135  130  -131  0
-135  -131  132  0
-139  -138  135  0
139  -138  134  0
139  -134  135  0
139  135  -136  0
143  142  138  0
143  -138  139  0
-143  139  -140  0
-147  -146  -143  0
147  -146  142  0
-147  -142  -143  0
-147  143  -144  0
151  -150  147  0
151  150  146  0
151  146  -147  0
-155  154  -150  0
155  150  -151  0
155  -151  -152  0
-8  -7  -4  0
-8  -7  3  0
8  -3  4  0
12  -11  -8  0
-12  -11  -7  0
-16  15  -12  0
-16  15  11  0
-16  -11  -12  0
-20  -19  16  0
-20  19  15  0
20  15  16  0
-24  23  20  0
-24  -19  20  0
28  27  24  0
-28  -23  24  0
32  -31  -28  0
32  -31  27  0
-32  -27  28  0
36  35  -32  0
36  -35  -31  0
36  31  -32  0
40  39  36  0
-40  35  -36  0
-44  43  40  0
44  43  -39  0
44  -39  40  0
48  -47  44  0
-48  -47  -43  0
-48  43  44  0
-52  -51  48  0
52  -51  47  0
-52  -47  -48  0
56  -55  -52  0
56  55  51  0
56  51  52  0
-60  -59  56  0
-60  59  55  0
60  -55  -56  0
64  -63  60  0
-68  -67  64  0
72  71  -68  0
72  -71  67  0
72  67  -68  0
76  75  72  0
76  -75  -71  0
-76  -71  72  0
80  -79  -76  0
80  79  75  0
-84  83  80  0
-84  -83  79  0
-84  79  -80  0
88  -87  84  0
-88  -87  83  0
88  -83  84  0
92  91  -88  0
92  -91  -87  0
92  87  88  0
96  -95  -92  0
-96  95  91  0
-96  -91  -92  0
100  95  96  0
-104  103  100  0
104  103  99  0
-104  99  -100  0
-108  -107  -104  0
-108  -107  103  0
-112  111  107  0
-112  -107  -108  0
-116  115  112  0
-116  115  -111  0
-116  -111  -112  0
-120  -119  116  0
120  119  -115  0
-120  -115  116  0
-124  -123  -120  0
-124  -123  -119  0
124  119  -120  0
128  -127  -123  0
128  123  124  0
132  131  -128  0
132  131  127  0
132  -127  128  0
136  135  132  0
136  131  -132  0
140  -139  -136  0
140  -139  -135  0
144  -143  140  0
-144  143  139  0
-148  -147  -144  0
148  -147  -143  0
152  -151  148  0
-152  -151  147  0
156  -155  152  0
-156  155  151  0
-156  151  -152  0
160  159  156  0
160  -159  -155  0
-160  155  -156  0
